(set-logic QF_BV)
(set-info :source |Converted by Dunbo Cai. dunbocai@gmail.com|)
(set-info :smt-lib-version 2.0)
(set-info :category "convex body with variables with domain [-15, 15]")
(declare-fun x_0 () (_ BitVec 32))
(declare-fun x_1 () (_ BitVec 32))
(declare-fun x_2 () (_ BitVec 32))
(declare-fun x_3 () (_ BitVec 32))
(declare-fun x_4 () (_ BitVec 32))
(declare-fun x_5 () (_ BitVec 32))
(assert (bvsge x_0 (bvsub (_ bv0 32) (_ bv15 32))) )
(assert (bvsle x_0 (_ bv15 32)) )
(assert (bvsge x_1 (bvsub (_ bv0 32) (_ bv15 32))) )
(assert (bvsle x_1 (_ bv15 32)) )
(assert (bvsge x_2 (bvsub (_ bv0 32) (_ bv15 32))) )
(assert (bvsle x_2 (_ bv15 32)) )
(assert (bvsge x_3 (bvsub (_ bv0 32) (_ bv15 32))) )
(assert (bvsle x_3 (_ bv15 32)) )
(assert (bvsge x_4 (bvsub (_ bv0 32) (_ bv15 32))) )
(assert (bvsle x_4 (_ bv15 32)) )
(assert (bvsge x_5 (bvsub (_ bv0 32) (_ bv15 32))) )
(assert (bvsle x_5 (_ bv15 32)) )
(assert (bvsle (bvadd (bvmul (bvsdiv (_ bv7 32) (_ bv1 32) ) x_0 )(bvmul (bvsdiv (_ bv21 32) (_ bv1 32) ) x_1 )(bvmul (bvsub (_ bv0 32) (bvsdiv (_ bv27 32) (_ bv1 32) )) x_4 )(bvmul (bvsdiv (_ bv35 32) (_ bv1 32) ) x_5 )) (bvmul (bvsdiv (_ bv203 32) (_ bv1 32) ) (_ bv1 32) ) )) 
(assert (bvsle (bvadd (bvmul (bvsub (_ bv0 32) (bvsdiv (_ bv9 32) (_ bv1 32) )) x_0 )(bvmul (bvsdiv (_ bv24 32) (_ bv1 32) ) x_1 )(bvmul (bvsdiv (_ bv2 32) (_ bv1 32) ) x_3 )) (bvmul (bvsdiv (_ bv39 32) (_ bv1 32) ) (_ bv1 32) ) )) 
(assert (bvsle (bvadd (bvmul (bvsub (_ bv0 32) (bvsdiv (_ bv18 32) (_ bv1 32) )) x_1 )(bvmul (bvsub (_ bv0 32) (bvsdiv (_ bv8 32) (_ bv1 32) )) x_2 )(bvmul (bvsub (_ bv0 32) (bvsdiv (_ bv9 32) (_ bv1 32) )) x_4 )(bvmul (bvsub (_ bv0 32) (bvsdiv (_ bv72 32) (_ bv1 32) )) x_5 )) (bvmul (bvsdiv (_ bv508 32) (_ bv1 32) ) (_ bv1 32) ) )) 
(assert (bvsle (bvadd (bvmul (bvsub (_ bv0 32) (bvsdiv (_ bv27 32) (_ bv1 32) )) x_0 )(bvmul (bvsdiv (_ bv32 32) (_ bv1 32) ) x_1 )(bvmul (bvsub (_ bv0 32) (bvsdiv (_ bv28 32) (_ bv1 32) )) x_3 )(bvmul (bvsub (_ bv0 32) (bvsdiv (_ bv16 32) (_ bv1 32) )) x_4 )(bvmul (bvsdiv (_ bv48 32) (_ bv1 32) ) x_5 )) (bvmul (bvsdiv (_ bv161 32) (_ bv1 32) ) (_ bv1 32) ) )) 
(assert (bvsle (bvadd (bvmul (bvsdiv (_ bv27 32) (_ bv1 32) ) x_0 )(bvmul (bvsub (_ bv0 32) (bvsdiv (_ bv18 32) (_ bv1 32) )) x_2 )(bvmul (bvsdiv (_ bv10 32) (_ bv1 32) ) x_3 )(bvmul (bvsdiv (_ bv9 32) (_ bv1 32) ) x_4 )) (bvmul (bvsdiv (_ bv417 32) (_ bv1 32) ) (_ bv1 32) ) )) 
(assert (bvsle (bvadd (bvmul (bvsub (_ bv0 32) (bvsdiv (_ bv5 32) (_ bv1 32) )) x_0 )(bvmul (bvsdiv (_ bv14 32) (_ bv1 32) ) x_2 )(bvmul (bvsub (_ bv0 32) (bvsdiv (_ bv2 32) (_ bv1 32) )) x_4 )(bvmul (bvsub (_ bv0 32) (bvsdiv (_ bv30 32) (_ bv1 32) )) x_5 )) (bvmul (bvsdiv (_ bv155 32) (_ bv1 32) ) (_ bv1 32) ) )) 
(assert (bvsle (bvadd (bvmul (bvsdiv (_ bv21 32) (_ bv1 32) ) x_0 )(bvmul (bvsub (_ bv0 32) (bvsdiv (_ bv64 32) (_ bv1 32) )) x_3 )(bvmul (bvsdiv (_ bv24 32) (_ bv1 32) ) x_4 )(bvmul (bvsub (_ bv0 32) (bvsdiv (_ bv24 32) (_ bv1 32) )) x_5 )) (bvmul (bvsdiv (_ bv729 32) (_ bv1 32) ) (_ bv1 32) ) )) 
(assert (bvsle (bvadd (bvmul (bvsdiv (_ bv21 32) (_ bv1 32) ) x_0 )(bvmul (bvsub (_ bv0 32) (bvsdiv (_ bv30 32) (_ bv1 32) )) x_2 )(bvmul (bvsub (_ bv0 32) (bvsdiv (_ bv20 32) (_ bv1 32) )) x_3 )(bvmul (bvsub (_ bv0 32) (bvsdiv (_ bv3 32) (_ bv1 32) )) x_4 )(bvmul (bvsdiv (_ bv90 32) (_ bv1 32) ) x_5 )) (bvmul (bvsub (_ bv0 32) (bvsdiv (_ bv15 32) (_ bv1 32) )) (_ bv1 32) ) )) 
(assert (bvsle (bvadd (bvmul (bvsdiv (_ bv224 32) (_ bv1 32) ) x_0 )(bvmul (bvsdiv (_ bv120 32) (_ bv1 32) ) x_1 )(bvmul (bvsub (_ bv0 32) (bvsdiv (_ bv105 32) (_ bv1 32) )) x_3 )(bvmul (bvsub (_ bv0 32) (bvsdiv (_ bv112 32) (_ bv1 32) )) x_4 )(bvmul (bvsdiv (_ bv140 32) (_ bv1 32) ) x_5 )) (bvmul (bvsdiv (_ bv3574 32) (_ bv1 32) ) (_ bv1 32) ) )) 
(assert (bvsle (bvadd (bvmul (bvsub (_ bv0 32) (bvsdiv (_ bv6 32) (_ bv1 32) )) x_0 )(bvmul (bvsub (_ bv0 32) (bvsdiv (_ bv28 32) (_ bv1 32) )) x_5 )) (bvmul (bvsdiv (_ bv201 32) (_ bv1 32) ) (_ bv1 32) ) )) 
(assert (bvsle (bvadd (bvmul (bvsdiv (_ bv70 32) (_ bv1 32) ) x_0 )(bvmul (bvsub (_ bv0 32) (bvsdiv (_ bv840 32) (_ bv1 32) )) x_1 )(bvmul (bvsdiv (_ bv120 32) (_ bv1 32) ) x_3 )(bvmul (bvsdiv (_ bv140 32) (_ bv1 32) ) x_4 )(bvmul (bvsdiv (_ bv42 32) (_ bv1 32) ) x_5 )) (bvmul (bvsub (_ bv0 32) (bvsdiv (_ bv3037 32) (_ bv1 32) )) (_ bv1 32) ) )) 

(check-sat)
(exit)